2578166
52,36,61,50,38,35,27,9,17,43,30,3,46,19,12,53,18,48,22,59,28,39,24,11,55,23,0,60,20,62,47,1,64,4,31,41,2,29,40,5,65,10,33,25,45,54,42,66,63,37,6,49,13,21,32,56,51,15,7,58,16,57,8,14,26,44,34,67
